c graph1
p edge 10 44
e 1 7
e 2 1
e 3 2
e 4 1
e 5 10
e 6 6
e 7 9
e 8 10
e 9 5
e 10 7
e 10 2
e 4 4
e 9 2
e 4 10
e 3 5
e 3 3
e 3 9
e 8 2
e 8 7
e 5 6
e 1 9
e 9 8
e 2 4
e 10 6
e 1 8
e 1 6
e 9 4
e 7 6
e 3 6
e 5 4
e 7 7
e 3 7
e 8 6
e 6 9
e 10 3
e 4 7
e 10 1
e 8 3
e 3 4
e 5 8
e 5 7
e 6 2
e 8 4
e 9 9
